NAME : rnd28_50.tsp
TYPE : TSP
DIMENSION : 50
EDGE_WEIGHT_TYPE : EUC_2D
NODE_COORD_SECTION
1 944 920
2 967 394
3 72 598
4 728 905
5 237 615
6 833 959
7 316 784
8 844 781
9 280 470
10 38 844
11 428 265
12 806 616
13 247 110
14 764 606
15 908 956
16 559 619
17 510 518
18 24 662
19 831 397
20 80 465
21 722 792
22 650 761
23 250 229
24 899 639
25 46 361
26 427 194
27 513 914
28 299 633
29 643 269
30 721 306
31 594 823
32 495 800
33 67 610
34 840 971
35 133 316
36 667 308
37 337 127
38 32 936
39 199 395
40 724 699
41 811 164
42 172 73
43 944 24
44 437 143
45 233 721
46 699 514
47 540 807
48 396 164
49 316 243
50 335 717
